Reading model...
...model read.
creating competitive generators file...
...competitive generators recorded.
Loading data...
.. real-time data read.
Compiling instance...
...instance created.
Creating Offer Mitigation (model will solve as dispatch if TRUE)...
...storage offer mitigation file created
Converting model to MPEC...
...converted
NOTE: initial MIP solve with only storage competitive to get feasible solution
Solving...

Welcome to IBM(R) ILOG(R) CPLEX(R) Interactive Optimizer 12.9.0.0
  with Simplex, Mixed Integer & Barrier Optimizers
5725-A06 5725-A29 5724-Y48 5724-Y49 5724-Y54 5724-Y55 5655-Y21
Copyright IBM Corp. 1988, 2019.  All Rights Reserved.

Type 'help' for a list of available commands.
Type 'help' followed by a command name for more
information on commands.

CPLEX> Logfile 'cplex.log' closed.
Logfile 'C:\Users\llavin\Desktop\test826\logs\tmpeub4c8wy.cplex.log' open.
CPLEX> New value for parallel optimization mode: -1
CPLEX> New value for mixed integer optimality gap tolerance: 0.01
CPLEX> New value for feasibility tolerance: 1e-09
CPLEX> New value for deterministic time limit in ticks: 150000
CPLEX> Problem 'C:\Users\llavin\Desktop\test826\logs\tmp3q5j9dog.pyomo.lp' read.
Read time = 0.53 sec. (28.82 ticks)
CPLEX> Problem name         : C:\Users\llavin\Desktop\test826\logs\tmp3q5j9dog.pyomo.lp
Objective sense      : Maximize
Variables            :  107783  [Nneg: 1,  Box: 44058,  Free: 8928,
                                 Binary: 54796]
Objective nonzeros   :   17377
Linear constraints   :  246903  [Less: 82866,  Greater: 118424,  Equal: 45613]
  Nonzeros           :  618269
  RHS nonzeros       :  134882

Variables            : Min LB: -5000.000        Max UB: 1000000.       
Objective nonzeros   : Min   : 0.1944444        Max   : 208.3333       
Linear constraints   :
  Nonzeros           : Min   : 0.1944444        Max   : 1000000.       
  RHS nonzeros       : Min   : 0.1944444        Max   : 1000000.       
CPLEX> CPXPARAM_Parallel                                -1
CPXPARAM_Simplex_Tolerances_Feasibility          1.0000000000000001e-09
CPXPARAM_DetTimeLimit                            150000
CPXPARAM_MIP_Tolerances_MIPGap                   0.01
Tried aggregator 3 times.
MIP Presolve eliminated 182427 rows and 42291 columns.
MIP Presolve added 6048 rows and 0 columns.
MIP Presolve modified 50036 coefficients.
Aggregator did 25785 substitutions.
Reduced MIP has 44739 rows, 38075 columns, and 128243 nonzeros.
Reduced MIP has 15002 binaries, 0 generals, 0 SOSs, and 0 indicators.
Presolve time = 0.61 sec. (352.06 ticks)
Probing fixed 823 vars, tightened 10219 bounds.
Probing time = 0.41 sec. (20.29 ticks)
Tried aggregator 2 times.
MIP Presolve eliminated 1838 rows and 1646 columns.
MIP Presolve modified 11605 coefficients.
Aggregator did 48 substitutions.
Reduced MIP has 42853 rows, 36381 columns, and 122777 nonzeros.
Reduced MIP has 14179 binaries, 0 generals, 0 SOSs, and 0 indicators.
Presolve time = 0.23 sec. (204.32 ticks)
Probing fixed 0 vars, tightened 4404 bounds.
Probing time = 0.92 sec. (83.82 ticks)
Clique table members: 97820.
MIP emphasis: balance optimality and feasibility.
MIP search method: dynamic search.
Parallel mode: opportunistic, using up to 32 threads.
Root relaxation solution time = 0.77 sec. (1461.31 ticks)

        Nodes                                         Cuts/
   Node  Left     Objective  IInf  Best Integer    Best Bound    ItCnt     Gap

*     0     0      integral     0        0.0000        0.0000     7709    0.00%
Elapsed time = 3.53 sec. (2474.50 ticks, tree = 0.00 MB, solutions = 1)

Root node processing (before b&c):
  Real time             =    3.56 sec. (2478.29 ticks)
Parallel b&c, 32 threads:
  Real time             =    0.00 sec. (0.00 ticks)
  Sync time (average)   =    0.00 sec.
  Wait time (average)   =    0.00 sec.
                          ------------
Total (root+branch&cut) =    3.56 sec. (2478.29 ticks)

Solution pool: 1 solution saved.

MIP - Integer optimal solution:  Objective =  0.0000000000e+00
Solution time =    3.59 sec.  Iterations = 7709  Nodes = 0
Deterministic time = 2478.60 ticks  (689.84 ticks/sec)

CPLEX> Incumbent solution written to file 'C:\Users\llavin\Desktop\test826\logs\tmp1gwitfug.cplex.sol'.
CPLEX> NOTE: no warmstart specified for MIP iteration, default behavior is true
NOTE: resolving with all competitive generators using storage-only solution to warmstart
Solving...

Welcome to IBM(R) ILOG(R) CPLEX(R) Interactive Optimizer 12.9.0.0
  with Simplex, Mixed Integer & Barrier Optimizers
5725-A06 5725-A29 5724-Y48 5724-Y49 5724-Y54 5724-Y55 5655-Y21
Copyright IBM Corp. 1988, 2019.  All Rights Reserved.

Type 'help' for a list of available commands.
Type 'help' followed by a command name for more
information on commands.

CPLEX> Logfile 'cplex.log' closed.
Logfile 'C:\Users\llavin\Desktop\test826\logs\tmpvo3gwld3.cplex.log' open.
CPLEX> New value for parallel optimization mode: -1
CPLEX> New value for mixed integer optimality gap tolerance: 0.01
CPLEX> New value for feasibility tolerance: 1e-09
CPLEX> New value for deterministic time limit in ticks: 150000
CPLEX> Problem 'C:\Users\llavin\Desktop\test826\logs\tmp_bopxlk9.pyomo.lp' read.
Read time = 0.53 sec. (28.87 ticks)
CPLEX> MIP start file 'C:\Users\llavin\Desktop\test826\logs\tmp0pj3aox1.cplex.mst' read.
CPLEX> Problem name         : C:\Users\llavin\Desktop\test826\logs\tmp_bopxlk9.pyomo.lp
Objective sense      : Maximize
Variables            :  109223  [Nneg: 1,  Box: 45498,  Free: 8928,
                                 Binary: 54796]
Objective nonzeros   :   18769
Linear constraints   :  246903  [Less: 82866,  Greater: 118424,  Equal: 45613]
  Nonzeros           :  618269
  RHS nonzeros       :  134882

Variables            : Min LB: -5000.000        Max UB: 1000000.       
Objective nonzeros   : Min   : 0.1944444        Max   : 208.3333       
Linear constraints   :
  Nonzeros           : Min   : 0.1944444        Max   : 1000000.       
  RHS nonzeros       : Min   : 0.1944444        Max   : 1000000.       
CPLEX> CPXPARAM_Parallel                                -1
CPXPARAM_Simplex_Tolerances_Feasibility          1.0000000000000001e-09
CPXPARAM_DetTimeLimit                            150000
CPXPARAM_MIP_Tolerances_MIPGap                   0.01
Warning:  No solution found from 1 MIP starts.
Retaining values of one MIP start for possible repair.
Tried aggregator 3 times.
MIP Presolve eliminated 182427 rows and 43731 columns.
MIP Presolve added 6048 rows and 0 columns.
MIP Presolve modified 50036 coefficients.
Aggregator did 25785 substitutions.
Reduced MIP has 44739 rows, 38075 columns, and 128243 nonzeros.
Reduced MIP has 15002 binaries, 0 generals, 0 SOSs, and 0 indicators.
Presolve time = 0.59 sec. (352.83 ticks)
Probing fixed 823 vars, tightened 10219 bounds.
Probing time = 0.39 sec. (20.29 ticks)
Tried aggregator 2 times.
MIP Presolve eliminated 1838 rows and 1646 columns.
MIP Presolve modified 11605 coefficients.
Aggregator did 48 substitutions.
Reduced MIP has 42853 rows, 36381 columns, and 122777 nonzeros.
Reduced MIP has 14179 binaries, 0 generals, 0 SOSs, and 0 indicators.
Presolve time = 0.23 sec. (204.33 ticks)
Probing fixed 0 vars, tightened 4404 bounds.
Probing time = 0.92 sec. (83.82 ticks)
Clique table members: 97820.
MIP emphasis: balance optimality and feasibility.
MIP search method: dynamic search.
Parallel mode: opportunistic, using up to 32 threads.
Root relaxation solution time = 1.22 sec. (1773.70 ticks)

        Nodes                                         Cuts/
   Node  Left     Objective  IInf  Best Integer    Best Bound    ItCnt     Gap

      0     0    14114.1043   386                  14114.1043     9208         
*     0+    0                            0.0000    14114.1043              --- 
      0     0    13958.2294   293        0.0000      Cuts: 25     9257     --- 
      0     0    13958.2294   326        0.0000     Cuts: 172     9393     --- 
      0     0    13958.2294   344        0.0000     Cuts: 422     9609     --- 
Repair heuristic found nothing.
      0     2    13958.2294   344        0.0000       Cuts: 3     9609     --- 
Elapsed time = 11.59 sec. (6056.74 ticks, tree = 0.02 MB, solutions = 1)
    275    61    12626.3825   324        0.0000    13957.4567     9893     --- 
    622   182    12773.4147   323        0.0000    13957.4567    10433     --- 
   1034   379    13288.3937   308        0.0000    13957.4567    11217     --- 
   1517   827    13734.5926   309        0.0000    13957.4567    14894     --- 
   1949  1335    13025.8655   306        0.0000    13957.4567    19342     --- 
   2286  2131    13547.1093   276        0.0000    13957.4567    24768     --- 
   2665  2312    13425.5177   287        0.0000    13957.4567    25827     --- 
   3298  1956    13683.7064   263        0.0000    13957.4567    23630     --- 
   3846  2560    12185.2346   227        0.0000    13957.4567    26660     --- 
   5854  4317     9144.6734   125        0.0000    13957.4567    31121     --- 
Elapsed time = 28.56 sec. (9160.48 ticks, tree = 51.16 MB, solutions = 1)

Cover cuts applied:  1
Implied bound cuts applied:  4
Flow cuts applied:  41
Mixed integer rounding cuts applied:  384

Root node processing (before b&c):
  Real time             =    8.22 sec. (5937.98 ticks)
Parallel b&c, 32 threads:
  Real time             =   25.97 sec. (5702.91 ticks)
  Sync time (average)   =    0.98 sec.
  Wait time (average)   =    0.00 sec.
                          ------------
Total (root+branch&cut) =   34.19 sec. (11640.89 ticks)

Solution pool: 1 solution saved.

MIP - Integer optimal solution:  Objective =  0.0000000000e+00
Solution time =   34.22 sec.  Iterations = 55282  Nodes = 6251
Deterministic time = 11641.20 ticks  (340.20 ticks/sec)

CPLEX> Incumbent solution written to file 'C:\Users\llavin\Desktop\test826\logs\tmp5g1sqllf.cplex.sol'.
CPLEX> Exporting results... 
